c generated by sgen1
c Command: ./sgen1 -n 80 -unsat -s 93 
p cnf 81 172
-2 -3 -4 0
-1 -3 -4 0
-1 -2 -4 0
-1 -2 -3 0
-6 -7 -8 0
-5 -7 -8 0
-5 -6 -8 0
-5 -6 -7 0
-10 -11 -12 0
-9 -11 -12 0
-9 -10 -12 0
-9 -10 -11 0
-14 -15 -16 0
-13 -15 -16 0
-13 -14 -16 0
-13 -14 -15 0
-18 -19 -20 0
-17 -19 -20 0
-17 -18 -20 0
-17 -18 -19 0
-22 -23 -24 0
-21 -23 -24 0
-21 -22 -24 0
-21 -22 -23 0
-26 -27 -28 0
-25 -27 -28 0
-25 -26 -28 0
-25 -26 -27 0
-30 -31 -32 0
-29 -31 -32 0
-29 -30 -32 0
-29 -30 -31 0
-34 -35 -36 0
-33 -35 -36 0
-33 -34 -36 0
-33 -34 -35 0
-38 -39 -40 0
-37 -39 -40 0
-37 -38 -40 0
-37 -38 -39 0
-42 -43 -44 0
-41 -43 -44 0
-41 -42 -44 0
-41 -42 -43 0
-46 -47 -48 0
-45 -47 -48 0
-45 -46 -48 0
-45 -46 -47 0
-50 -51 -52 0
-49 -51 -52 0
-49 -50 -52 0
-49 -50 -51 0
-54 -55 -56 0
-53 -55 -56 0
-53 -54 -56 0
-53 -54 -55 0
-58 -59 -60 0
-57 -59 -60 0
-57 -58 -60 0
-57 -58 -59 0
-62 -63 -64 0
-61 -63 -64 0
-61 -62 -64 0
-61 -62 -63 0
-66 -67 -68 0
-65 -67 -68 0
-65 -66 -68 0
-65 -66 -67 0
-70 -71 -72 0
-69 -71 -72 0
-69 -70 -72 0
-69 -70 -71 0
-74 -75 -76 0
-73 -75 -76 0
-73 -74 -76 0
-73 -74 -75 0
-77 -78 -79  0
-77 -78 -80  0
-77 -78 -81  0
-77 -79 -80  0
-77 -79 -81  0
-77 -80 -81  0
-78 -79 -80  0
-78 -79 -81  0
-78 -80 -81  0
-79 -80 -81  0
31 25 40 0
41 25 40 0
41 31 40 0
41 31 25 0
3 28 21 0
14 28 21 0
14 3 21 0
14 3 28 0
81 2 47 0
66 2 47 0
66 81 47 0
66 81 2 0
4 34 49 0
44 34 49 0
44 4 49 0
44 4 34 0
19 36 5 0
46 36 5 0
46 19 5 0
46 19 36 0
64 24 38 0
45 24 38 0
45 64 38 0
45 64 24 0
53 57 32 0
33 57 32 0
33 53 32 0
33 53 57 0
11 29 79 0
73 29 79 0
73 11 79 0
73 11 29 0
55 43 48 0
13 43 48 0
13 55 48 0
13 55 43 0
61 35 26 0
9 35 26 0
9 61 26 0
9 61 35 0
69 77 62 0
23 77 62 0
23 69 62 0
23 69 77 0
1 74 54 0
6 74 54 0
6 1 54 0
6 1 74 0
10 72 56 0
39 72 56 0
39 10 56 0
39 10 72 0
42 70 76 0
59 70 76 0
59 42 76 0
59 42 70 0
8 12 67 0
60 12 67 0
60 8 67 0
60 8 12 0
71 65 50 0
16 65 50 0
16 71 50 0
16 71 65 0
7 27 51 0
80 27 51 0
80 7 51 0
80 7 27 0
22 20 52 0
75 20 52 0
75 22 52 0
75 22 20 0
30 17 68 0
63 17 68 0
63 30 68 0
63 30 17 0
15 78 37  0
15 78 18  0
15 78 58  0
15 37 18  0
15 37 58  0
15 18 58  0
78 37 18  0
78 37 58  0
78 18 58  0
37 18 58  0
